InstanciasPAB/instancia.demur.50.250.3A.txt
N 50
M 250
K Bauxita AluminaCalcinada CarvaoMineralROM CarvaoMineralSIZED CoqueBP CoquePetroleoCalcinado PicheSolidoTipoLapis SodaCausticaEstoque ;
L 3
v
1 11
2 9
3 13
d
1 3
2 4
3 6
4 8
5 13
6 27
7 27
8 28
9 46
10 55
11 60
12 61
13 69
14 75
15 76
16 76
17 78
18 81
19 86
20 87
21 88
22 89
23 90
24 112
25 112
26 122
27 129
28 136
29 139
30 139
31 141
32 144
33 149
34 153
35 159
36 177
37 179
38 179
39 180
40 184
41 189
42 191
43 197
44 200
45 209
46 213
47 215
48 227
49 236
50 237
a
1 3
2 4
3 6
4 8
5 13
6 27
7 27
8 28
9 46
10 55
11 60
12 61
13 69
14 75
15 76
16 76
17 78
18 81
19 86
20 87
21 88
22 89
23 90
24 112
25 112
26 122
27 129
28 136
29 139
30 139
31 141
32 144
33 149
34 153
35 159
36 177
37 179
38 179
39 180
40 184
41 189
42 191
43 197
44 200
45 209
46 213
47 215
48 227
49 236
50 237
e
Bauxita 144,29
AluminaCalcinada 89,85
CarvaoMineralROM 55,93
CarvaoMineralSIZED 12,14
CoqueBP 9,08
CoquePetroleoCalcinado 14,32
PicheSolidoTipoLapis 7,44
SodaCausticaEstoque 37,49
ck
Bauxita 5,22
AluminaCalcinada 0,90
CarvaoMineralROM 0,18
CarvaoMineralSIZED 0,09
CoqueBP 0,05
CoquePetroleoCalcinado 0,08
PicheSolidoTipoLapis 0,05
SodaCausticaEstoque 0,17
q Bauxita AluminaCalcinada CarvaoMineralROM CarvaoMineralSIZED CoqueBP CoquePetroleoCalcinado PicheSolidoTipoLapis SodaCausticaEstoque
1	42,5	0,0	0,0	0,0	0,0	0,0	0,0	0,0
2	0,0	33,6	0,0	0,0	0,0	0,0	0,0	0,0
3	0,0	13,2	0,0	0,0	0,0	0,0	0,0	0,0
4	0,0	29,3	0,0	0,0	0,0	0,0	0,0	0,0
5	42	0,0	0,0	0,0	0,0	0,0	0,0	0,0
6	42,5	0,0	0,0	0,0	0,0	0,0	0,0	0,0
7	42	0,0	0,0	0,0	0,0	0,0	0,0	0,0
8	0,0	26	0,0	0,0	0,0	0,0	0,0	0,0
9	42,5	0,0	0,0	0,0	0,0	0,0	0,0	0,0
10	42	0,0	0,0	0,0	0,0	0,0	0,0	0,0
11	0,0	0,0	0,0	0,0	0,0	0,0	5	0,0
12	43	0,0	0,0	0,0	0,0	0,0	0,0	0,0
13	42,7	0,0	0,0	0,0	0,0	0,0	0,0	0,0
14	0,0	12,6	0,0	0,0	0,0	0,0	0,0	0,0
15	0,0	12,6	0,0	0,0	0,0	0,0	0,0	0,0
16	0,0	0,0	0,0	22,3	0,0	0,0	0,0	0,0
17	0,0	0,0	0,0	0,0	0,0	0,0	0,0	20,9
18	42,4	0,0	0,0	0,0	0,0	0,0	0,0	0,0
19	0,0	27,9	0,0	0,0	0,0	0,0	0,0	0,0
20	0,0	0,0	0,0	0,0	10,5	0,0	0,0	0,0
21	42,7	0,0	0,0	0,0	0,0	0,0	0,0	0,0
22	42,4	0,0	0,0	0,0	0,0	0,0	0,0	0,0
23	42,9	0,0	0,0	0,0	0,0	0,0	0,0	0,0
24	0,0	29,8	0,0	0,0	0,0	0,0	0,0	0,0
25	46,7	0,0	0,0	0,0	0,0	0,0	0,0	0,0
26	43	0,0	0,0	0,0	0,0	0,0	0,0	0,0
27	41	0,0	0,0	0,0	0,0	0,0	0,0	0,0
28	42	0,0	0,0	0,0	0,0	0,0	0,0	0,0
29	17	0,0	0,0	0,0	0,0	0,0	0,0	0,0
30	30	0,0	0,0	0,0	0,0	0,0	0,0	0,0
31	0,0	0,0	0,0	0,0	0,0	0,0	0,0	30,2
32	0,0	0,0	0,0	0,0	0,0	13,5	0,0	0,0
33	42,5	0,0	0,0	0,0	0,0	0,0	0,0	0,0
34	42	0,0	0,0	0,0	0,0	0,0	0,0	0,0
35	42	0,0	0,0	0,0	0,0	0,0	0,0	0,0
36	0,0	30	0,0	0,0	0,0	0,0	0,0	0,0
37	0,0	12,5	0,0	0,0	0,0	0,0	0,0	0,0
38	49	0,0	0,0	0,0	0,0	0,0	0,0	0,0
39	0,0	0,0	0,0	0,0	12	0,0	0,0	0,0
40	42,5	0,0	0,0	0,0	0,0	0,0	0,0	0,0
41	42	0,0	0,0	0,0	0,0	0,0	0,0	0,0
42	0,0	41,7	0,0	0,0	0,0	0,0	0,0	0,0
43	0,0	0,0	26,5	0,0	0,0	0,0	0,0	0,0
44	0,0	0,0	0,0	0,0	0,0	0,0	5	0,0
45	49	0,0	0,0	0,0	0,0	0,0	0,0	0,0
46	42,5	0,0	0,0	0,0	0,0	0,0	0,0	0,0
47	0,0	0,0	0,0	0,0	0,0	0,0	0,0	26,1
48	42	0,0	0,0	0,0	0,0	0,0	0,0	0,0
49	49	0,0	0,0	0,0	0,0	0,0	0,0	0,0
50	42,5	0,0	0,0	0,0	0,0	0,0	0,0	0,0
